%nproc=16
%mem=60GB
#P PBE1PBE/def2TZVP opt freq EmpiricalDispersion=GD3 Int=(grid=99590) scrf=(iefpcm, solvent=water) 

tfp-pyridine_inter

0 1
H                 -3.51125873   -1.13004058   -0.70901170
O                 -3.49283551    0.82377952   -0.46285368
C                 -2.40053200    0.65861500    0.08665000
N                 -3.15092003   -1.23457905    0.23715637
H                 -2.45382893   -1.97509750    0.20655751
C                 -4.23846575   -1.54856004    1.17125315
H                 -3.81947748   -1.76676985    2.15104422
H                 -4.88881207   -0.67823498    1.23039406
H                 -4.79945175   -2.41129371    0.81611796
C                 -1.84272893    0.60384320    1.49461997
H                 -1.21336371    1.48100332    1.64734425
H                 -2.67715408    0.66486388    2.19291091
H                 -1.26110083   -0.29279726    1.71226642
C                 -2.09775966   -0.66948002   -4.30495574
C                 -1.89738001   -0.71746911   -2.91324789
C                 -1.68834620    0.48081053   -2.22806735
C                 -1.68625172    1.67594749   -2.94945069
C                 -1.89553003    1.62146184   -4.33969479
N                 -2.09892205    0.47437514   -5.01668334
O                 -1.47877666    0.48346244   -0.81350962
F                 -1.90883877   -1.90024116   -2.26254137
F                 -1.48864103    2.86170241   -2.33509308
F                 -1.90280609    2.74889266   -5.08222210
F                 -2.30420219   -1.80023857   -5.01295757

