%nproc=24
%mem=64GB
#P PBE1PBE/def2TZVP opt=(calcfc, ts, noeigentest) freq EmpiricalDispersion=GD3 Int=(grid=99590) scrf=(iefpcm, solvent=water) 

pfp-cf3_ester ts1

0 1
H                 -2.32656600    1.64150400    0.16260600
O                 -1.82377200   -0.72563900    1.24022400
C                 -2.25774500   -0.58416000    0.10108900
N                 -3.09035700    0.98770500    0.02172800
H                 -3.43878100    1.13929300   -0.92016400
C                 -4.12976100    1.15762800    1.03775700
H                 -5.02708000    0.61665500    0.75350400
H                 -3.75318700    0.75211800    1.97632800
H                 -4.37639900    2.21117700    1.17100600
C                 -3.25176400   -1.51775700   -0.54760000
O                 -1.25866000   -0.28549600   -0.97108800
C                  0.00867000   -0.13135600   -0.55520600
C                  0.58165900    1.13111500   -0.45165700
C                  0.81427200   -1.22603200   -0.25672200
C                  1.90333800    1.30492100   -0.08103200
C                  2.13532000   -1.06893500    0.12257600
C                  2.68342100    0.19976300    0.21040600
F                 -0.15878400    2.20850500   -0.71158100
F                  0.31674600   -2.45299400   -0.35146800
F                  2.42291500    2.52394700    0.00314000
F                  2.88397300   -2.13066200    0.39818500
F                  3.95125100    0.35432000    0.56926200
F                 -2.70040253   -2.75001222   -0.54070050
F                 -3.52705324   -1.16853047   -1.82225943
F                 -4.39887687   -1.56364355    0.16270027

