%nprocshared=16
%mem=60GB
#P PBE1PBE/def2TZVP opt=(calcfc, ts, noeigentest) freq EmpiricalDispersion=GD3 Int=(grid=99590) scrf=(iefpcm, solvent=water)

x=chf2 ts2

0 1
C                  0.16633300   -0.59646500   -0.60830000
C                  1.34262800   -1.34045700   -0.37337000
C                  1.48950000    1.38863200    0.00056300
C                  2.52908000   -0.75620100    0.02622600
C                  2.61632800    0.61350300    0.21943900
F                  3.60857300   -1.51448100    0.23371000
F                  3.76489700    1.17436500    0.61344400
F                  1.31307200   -2.66872900   -0.55264600
C                  0.31158900    0.79044300   -0.39421500
F                 -0.77139300    1.55472500   -0.62050200
F                  1.55025300    2.71005000    0.17734800
O                 -2.24444000    0.36131800    1.51334700
C                 -2.82618800   -0.40444200    0.81914600
C                 -3.27180200   -1.77953400    1.13835700
O                 -0.95524000   -1.10501200   -0.99604200
H                 -3.81204300   -0.62660300   -1.00670100
N                 -3.21698100    0.06687300   -0.55640100
H                 -2.28582100    0.01891000   -1.05753400
C                 -3.83400900    1.40908700   -0.60184200
H                 -3.97063900    1.68336000   -1.64510200
H                 -4.79339900    1.38388900   -0.09037700
H                 -3.16001900    2.10690200   -0.11504800
F                 -2.68811796   -2.18679253    2.28550713
H                 -4.33421618   -1.76764938    1.26498587
F                 -2.97258857   -2.62361464    0.12815939

