%nproc=24
%mem=64GB
#P PBE1PBE/def2TZVP opt freq EmpiricalDispersion=GD3 Int=(grid=99590) scrf=(iefpcm, solvent=water) 

pfp-oh_ester inter

0 1
H                 -2.38382900    1.62420200    0.15023700
O                 -1.82158600   -0.54909300    1.31774900
C                 -2.28509400   -0.50215800    0.17075000
N                 -3.08941100    0.92129400   -0.05831400
H                 -3.34124100    1.03395100   -1.03732900
C                 -4.24972300    1.08752500    0.82714000
H                 -5.04366400    0.41512600    0.51086100
H                 -3.93388600    0.84095000    1.83914700
H                 -4.60673800    2.11529300    0.78855400
C                 -3.18373900   -1.59725400   -0.36513400
H                 -4.02774400   -1.74636900    0.30874500
H                 -3.54889800   -1.38800600   -1.37138700
O                 -1.25518000   -0.27146100   -0.96262700
C                  0.01050500   -0.12482200   -0.55805400
C                  0.58540800    1.13588100   -0.42547200
C                  0.82232000   -1.22239700   -0.28247300
C                  1.90822800    1.30549500   -0.05907100
C                  2.14596000   -1.07125700    0.08962000
C                  2.69327700    0.19587100    0.20099500
F                 -0.16252000    2.21748700   -0.64947700
F                  0.32384800   -2.44952100   -0.38921600
F                  2.42536500    2.52423700    0.05163300
F                  2.89815900   -2.13758100    0.34052000
F                  3.96376500    0.34453900    0.55524600
O                 -2.41036283   -2.79964524   -0.39745419
H                 -2.86652200   -3.46000320   -0.92418579

