%nproc=16
%mem=60GB
#P PBE1PBE/def2TZVP opt=(calcfc, ts, noeigentest) freq EmpiricalDispersion=GD3 Int=(grid=99590) scrf=(iefpcm, solvent=water) 

tfp-pyridine ts2 

0 1
O                  1.29918200    0.37082900    1.47788200
C                  1.82893900    0.69366400    0.46050400
C                  2.27482700    2.04695000    0.04649200
H                  1.68204000    2.79364200    0.56902900
H                  3.32658100    2.16034100    0.33263000
H                  2.18880000    2.18315000   -1.02995100
H                  3.03367100   -0.07115500   -1.08187900
N                  2.30639000   -0.41672700   -0.45845600
H                  1.42912600   -0.54646400   -1.02320900
C                  2.73076600   -1.65151600    0.22464600
H                  2.94809900   -2.40055800   -0.53288200
H                  3.61810400   -1.44639600    0.81984700
H                  1.91454800   -1.98899900    0.85423500
C                 -3.04691979   -0.02044174    0.84590040
C                 -2.01761718    0.69489415    0.20704485
C                 -1.02310647   -0.02168096   -0.46116933
C                 -1.08933525   -1.41606594   -0.46858002
C                 -2.15834352   -2.04106805    0.19935592
N                 -3.12637489   -1.36529891    0.84877183
O                  0.04447394    0.66036962   -1.12447850
F                 -0.15309397   -2.15595772   -1.09985843
F                 -1.99975536    2.04427104    0.24396320
F                 -4.03177292    0.62603899    1.50516284
F                 -2.26762545   -3.38645779    0.22135419

