%nproc=24
%mem=64GB
#P PBE1PBE/def2TZVP opt freq EmpiricalDispersion=GD3 Int=(grid=99590) scrf=(iefpcm, solvent=water) 

tfp-cf3_ester

0 1
O                 -3.00790832   -1.03335962    2.02109679
C                 -1.94147454   -1.14106431    2.68040648
C                 -1.99561054   -1.30794519    4.21038035
H                 -1.97523349   -0.34439753    4.67520363
H                 -2.89725197   -1.81601082    4.48206406
H                 -1.15196012   -1.87937691    4.53690717
O                 -0.67934884   -1.10849518    2.00893200
C                 -0.45933488   -1.05723904    0.62408538
C                 -0.29823600   -2.17108767   -0.20275602
C                 -0.85586054    0.15667857    0.05888648
C                 -0.52847744   -2.05510465   -1.53329723
C                 -1.07643618    0.23231793   -1.27618961
C                 -0.91406961   -0.86395023   -2.06470710
F                  0.08432594   -3.35557674    0.31986431
F                 -1.01838873    1.24764390    0.83726893
F                 -0.37406029   -3.12906660   -2.33657868
F                 -1.45987914    1.40362818   -1.82710139
C                 -1.17022488   -0.75506676   -3.57934529
F                 -1.63332543   -1.93519145   -4.04339658
F                 -0.01734941   -0.44488461   -4.20955573
F                 -2.08455144    0.21032558   -3.81285025

